NAME : in_house_8_21
TYPE : TSP
DIMENSION : 8
EDGE_WEIGHT_TYPE : EXPLICIT
EDGE_WEIGHT_FORMAT : UPPER_ROW
COMMENT : INVERSION_SHIFT=7
EDGE_WEIGHT_SECTION
52
51
34
36
52
58
47
31
31
51
34
33
7
20
13
47
21
15
31
14
58
48
56
36
48
15
57
33
